 vasp.6.4.0 14Feb23 (build Mar 11 2024 14:58:30) complex
 executed on             epyc9004 date 2024.08.19  18:46:35

 INCAR:
   ENCUT = 520.000000
   SIGMA = 0.050000
   TIME = 0.050000
   NUPDOWN = 119.000000
   EDIFF = 1.00e-06
   EDIFFG = -2.00e-02
   SYMPREC = 1.00e-07
   ALGO = all
   GGA = PE
   PREC = accurate
   IBRION = 2
   ISIF = 2
   ISMEAR = 0
   ISPIN = 2
   ISYM = 0
   KPAR = 3
   LMAXMIX = 4
   LORBIT = 12
   NELM = 300
   NELMIN = 8
   NSW = 1
   NCORE = 4
   LASPH = .TRUE.
   LCHARG = .TRUE.
   LDAU = .TRUE.
   LWAVE = .TRUE.
   LREAL = auto
   LDAUL = 2 -1 -1 -1
   LDAUU = 5.300 0.000 0.000 0.000
   LDAUJ = 0.000 0.000 0.000 0.000
   MAGMOM = 1*4.3447 1*4.3408 1*4.3448 1*4.3460 1*4.3427 1*4.3462 1*4.3490 1*4.3450 1*4.3473 1*4.3402 1*4.3460 1*4.3430 1*4.3413 1*4.3428 1*3.7850 1*4.3300 1*4.3450 1*4.3460 1*4.3442 1*4.3460 1*4.3470 1*4.3468 1*4.3490 1*4.3450 1*0.0147 3*0.0150 1*0.0147 1*0.0160 2*0.0150 1*0.0133 1*0.0150 1*0.0130 1*0.0150 1*0.0133 2*0.0160 1*0.0130 8*0.0150 1*0.1138 1*0.1162 1*0.1190 1*0.1152 1*0.1120 1*0.1032 1*0.1073 1*0.1117 1*0.1350 1*0.1312 1*0.1315 2*0.1360 1*0.1355 1*0.1365 1*0.1350 1*0.1132 1*0.1175 1*0.1128 1*0.1177 1*0.1175 1*0.1007 1*0.1038 1*0.1120 1*0.1312 1*0.1360 1*0.1310 1*0.1387 1*0.1318 1*0.1372 1*0.1338 1*0.1200 1*0.1052 1*0.1168 1*0.1120 1*0.1170 1*0.1120 1*0.0998 1*0.1070 1*0.1040 1*0.1305 1*0.1350 1*0.1365 1*0.1368 1*0.1345 1*0.1322 1*0.1310 1*0.1318 1*0.0978 1*0.1195 1*0.0300 1*0.1250 1*0.1243 1*0.0873 1*0.0490 1*0.1000 1*0.1292 1*0.1240 1*0.0917 1*0.1398 1*0.0983 1*0.1352 1*0.1158 1*0.1360 1*0.1170 1*0.1180 1*0.1190 1*0.1158 1*0.1110 1*0.1080 1*0.1087 1*0.1103 1*0.1362 1*0.1357 1*0.1360 1*0.1335 1*0.1295 1*0.1360 1*0.1368 1*0.1343 1*0.1170 1*0.1160 1*0.1122 1*0.1163 1*0.1098 1*0.1080 1*0.1032 1*0.1120 1*0.1360 1*0.1340 1*0.1312 1*0.1380 1*0.1312 1*0.1373 1*0.1360 1*0.1340 1*0.0000

 POTCAR:    PAW_PBE Fe_pv 02Aug2007
 POTCAR:    PAW_PBE P 06Sep2000
 POTCAR:    PAW_PBE O 08Apr2002
 POTCAR:    PAW_PBE Na_pv 19Sep2006
|           W    W    AA    RRRRR   N    N  II  N    N   GGGG   !!!           |
|           W    W   A  A   R    R  NN   N  II  NN   N  G    G  !!!           |
|           W    W  A    A  R    R  N N  N  II  N N  N  G       !!!           |
|           W WW W  AAAAAA  RRRRR   N  N N  II  N  N N  G  GGG   !            |
|           WW  WW  A    A  R   R   N   NN  II  N   NN  G    G                |
|           W    W  A    A  R    R  N    N  II  N    N   GGGG   !!!           |
|     For optimal performance we recommend to set                             |
|       NCORE = 2 up to number-of-cores-per-socket                            |
|     This setting can greatly improve the performance of VASP for DFT.       |
|     The default, NCORE=1 might be grossly inefficient on modern             |
|     multi-core architectures or massively parallel machines. Do your        |
|     Unfortunately you need to use the default for GW and RPA                |
|     calculations (for HF NCORE is supported but not extensively tested      |
|     yet).                                                                   |

 POTCAR:    PAW_PBE Fe_pv 02Aug2007
   VRHFIN =Fe:  3pd7s1

   TITEL  = PAW_PBE Fe_pv 02Aug2007
   POMASS =   55.847; ZVAL   =   14.000    mass and valenz
   ENMAX  =  293.238; ENMIN  =  219.928 eV

 POTCAR:    PAW_PBE P 06Sep2000
   VRHFIN =P : s2p3

   TITEL  = PAW_PBE P 06Sep2000
   POMASS =   30.974; ZVAL   =    5.000    mass and valenz
   ENMAX  =  255.040; ENMIN  =  191.280 eV

 POTCAR:    PAW_PBE O 08Apr2002
   VRHFIN =O: s2p4

   TITEL  = PAW_PBE O 08Apr2002
   POMASS =   16.000; ZVAL   =    6.000    mass and valenz
   ENMAX  =  400.000; ENMIN  =  300.000 eV

 POTCAR:    PAW_PBE Na_pv 19Sep2006
   VRHFIN =Na: p6s1

   TITEL  = PAW_PBE Na_pv 19Sep2006
   POMASS =   22.990; ZVAL   =    7.000    mass and valenz
   ENMAX  =  259.561; ENMIN  =  194.671 eV

 Optimization of the real space projectors (new method)

 maximal supplied QI-value         = 17.01
 optimisation between [QCUT,QGAM] = [ 11.57, 23.30] = [ 37.45,152.03] Ry
 Optimized for a Real-space Cutoff    1.45 Angstroem

   l    n(q)    QCUT    max X(q) W(low)/X(q) W(high)/X(q)  e(spline)
   1     10    11.565     4.267    0.91E-04    0.15E-03    0.13E-06
   1     10    11.565     5.750    0.14E-03    0.22E-03    0.20E-06
   2      9    11.565    53.656    0.13E-03    0.57E-04    0.16E-06
   2      9    11.565    49.521    0.13E-03    0.59E-04    0.16E-06
   0     10    11.565    31.246    0.61E-04    0.74E-05    0.89E-07
   0     10    11.565    12.201    0.44E-04    0.68E-05    0.74E-07
 Optimization of the real space projectors (new method)

[...]

   l    n(q)    QCUT    max X(q) W(low)/X(q) W(high)/X(q)  e(spline)
   0      8    11.635    20.381    0.10E-03    0.33E-03    0.24E-06
   0      8    11.635    15.268    0.11E-03    0.35E-03    0.26E-06
   1      7    11.635     5.964    0.24E-03    0.31E-03    0.30E-06
   1      7    11.635     5.382    0.22E-03    0.25E-03    0.26E-06
 Optimization of the real space projectors (new method)

 maximal supplied QI-value         = 17.01
 optimisation between [QCUT,QGAM] = [ 11.57, 23.30] = [ 37.45,152.03] Ry
 Optimized for a Real-space Cutoff    1.45 Angstroem

   l    n(q)    QCUT    max X(q) W(low)/X(q) W(high)/X(q)  e(spline)
   1     10    11.565     4.940    0.87E-04    0.13E-03    0.13E-06
   1     10    11.565     6.253    0.13E-03    0.19E-03    0.20E-06
   0     10    11.565    37.438    0.53E-04    0.73E-05    0.79E-07
   0     10    11.565     9.606    0.27E-04    0.60E-05    0.56E-07
  PAW_PBE Fe_pv 02Aug2007               :
  PAW_PBE P 06Sep2000                   :
  PAW_PBE O 08Apr2002                   :
  PAW_PBE Na_pv 19Sep2006               :

 POSCAR: Fe P  O  Na
  positions in cartesian coordinates
 exchange correlation table for  LEXCH =        8
   RHO(1)=    0.500       N(1)  =     2000
   RHO(2)=  100.500       N(2)  =     4000

 ion  position               nearest neighbor table
   1  0.782  0.247  0.255-  49 1.94  53 1.96  62 2.14  63 2.17  92 2.22  57 2.22  25 2.87
   2  0.279  0.250  0.492-  50 1.93  70 1.98  80 2.07  93 2.17  59 2.18  74 2.34  30 2.87
   3  0.220  0.083  0.244-  51 1.93  55 1.97  58 2.17 128 2.18  59 2.19  61 2.23
   4  0.718  0.082  0.007-  52 1.94  72 1.96 121 2.16  63 2.17  76 2.20  78 2.21  32 2.87
   5  0.780  0.247  0.757-  65 1.94  69 1.96  78 2.16  79 2.18 108 2.19  73 2.28
   6  0.283  0.251  0.993-  66 1.94  54 1.99 109 2.08  75 2.18  64 2.22  58 2.23
   7  0.218  0.082  0.744-  67 1.95  71 1.99  74 2.07 144 2.16  77 2.22  75 2.23
   8  0.719  0.082  0.507-  68 1.93  56 1.97 137 2.16  79 2.19  60 2.21  62 2.23
   9  0.782  0.584  0.254-  81 1.94  85 1.96 124 2.16  94 2.18  95 2.20  89 2.21  33 2.86
  10  0.280  0.583  0.491-  82 1.93 102 2.01 106 2.06 125 2.16  91 2.16 112 2.36  38 2.87
  11  0.219  0.416  0.246-  83 1.92  87 1.96  64 2.18  93 2.19  91 2.20  90 2.20  35 2.86
  12  0.721  0.414  0.008-  84 1.92 104 1.98  57 2.14 108 2.17  95 2.22 110 2.23  40 2.86
  13  0.783  0.587  0.757- 101 1.95  97 1.98 140 2.11 110 2.19 105 2.20 111 2.28
  14  0.283  0.582  0.994-  98 1.94  86 1.98 107 2.13 141 2.19  90 2.20  96 2.22  34 2.87
  15  0.209  0.414  0.737- 103 1.99  99 2.06  80 2.25 106 2.36
  16  0.722  0.413  0.495- 100 1.92  88 1.97  92 2.12  73 2.15  94 2.20 111 2.30  36 2.81
  17  0.781  0.917  0.257- 113 1.93 117 1.97  60 2.16 126 2.18 121 2.21 127 2.22
  18  0.280  0.917  0.494- 114 1.93 134 1.97  61 2.15 123 2.17 144 2.22 138 2.22
  19  0.220  0.750  0.244- 115 1.93 119 1.97 122 2.17  96 2.18 123 2.21 125 2.23
  20  0.718  0.752  0.007- 116 1.94 136 1.96 127 2.14  89 2.17 142 2.19 140 2.24
  21  0.779  0.917  0.757- 129 1.94 133 1.97  76 2.14 142 2.16 137 2.21 143 2.22
  22  0.280  0.917  0.995- 130 1.94 118 1.97  77 2.16 139 2.17 128 2.21 122 2.22  42 2.88
  23  0.218  0.751  0.745- 131 1.95 135 1.99 112 2.07 138 2.15 139 2.21 141 2.24
  24  0.719  0.752  0.506- 132 1.94 120 1.97 143 2.15 105 2.18 126 2.19 124 2.24
  25  0.608  0.249  0.031-  54 1.53  65 1.54  63 1.59  57 1.59   1 2.87
  26  0.107  0.249  0.219-  50 1.54  53 1.54  58 1.58  64 1.58
  27  0.393  0.082  0.472-  67 1.53  56 1.54  61 1.58  59 1.59
  28  0.893  0.082  0.280-  52 1.54  55 1.54  60 1.59  62 1.59
  29  0.607  0.250  0.528-  70 1.54  49 1.54  73 1.58  79 1.59
  30  0.106  0.245  0.719-  66 1.54  69 1.55  80 1.58  74 1.58   2 2.87
  31  0.393  0.083  0.971-  51 1.54  72 1.54  75 1.58  77 1.58
  32  0.892  0.082  0.781-  71 1.53  68 1.54  78 1.59  76 1.59   4 2.87
  33  0.608  0.584  0.030-  86 1.54  97 1.55  89 1.58  95 1.58   9 2.86
  34  0.107  0.584  0.218-  82 1.54  85 1.54  96 1.58  90 1.58  14 2.87
  35  0.394  0.416  0.468-  99 1.53  88 1.55  93 1.58  91 1.59  11 2.86
  36  0.895  0.417  0.277-  87 1.54  84 1.54  94 1.58  92 1.59  16 2.81
  37  0.609  0.585  0.527-  81 1.53 102 1.55 105 1.58 111 1.59
  38  0.109  0.588  0.718-  98 1.54 101 1.55 106 1.57 112 1.58  10 2.87
  39  0.392  0.415  0.978-  83 1.53 109 1.56 104 1.57 107 1.57
  40  0.886  0.417  0.777- 103 1.51 100 1.54 110 1.59 108 1.59  12 2.86
  41  0.606  0.917  0.031- 129 1.54 118 1.54 121 1.58 127 1.59
  42  0.107  0.917  0.221- 114 1.54 117 1.54 128 1.58 122 1.58  22 2.88
  43  0.393  0.750  0.472- 131 1.53 120 1.54 123 1.59 125 1.59
  44  0.893  0.750  0.280- 116 1.54 119 1.54 124 1.58 126 1.59
  45  0.607  0.917  0.530- 113 1.54 134 1.54 137 1.58 143 1.58
  46  0.106  0.917  0.721- 130 1.54 133 1.54 144 1.58 138 1.58
  47  0.393  0.750  0.971- 115 1.54 136 1.54 141 1.58 139 1.58
  48  0.892  0.751  0.781- 135 1.53 132 1.54 142 1.59 140 1.59
  49  0.636  0.249  0.376-  29 1.54   1 1.94
  50  0.134  0.249  0.372-  26 1.54   2 1.93
  51  0.365  0.083  0.124-  31 1.54   3 1.93
  52  0.865  0.082  0.127-  28 1.54   4 1.94
  53  0.961  0.249  0.193-  26 1.54   1 1.96
  54  0.463  0.248  0.059-  25 1.53   6 1.99
  55  0.039  0.083  0.305-  28 1.54   3 1.97
  56  0.539  0.083  0.445-  27 1.54   8 1.97
  57  0.680  0.313  0.102-  25 1.59  12 2.14   1 2.22
  58  0.179  0.185  0.146-  26 1.58   3 2.17   6 2.23
  59  0.321  0.146  0.399-  27 1.59   2 2.18   3 2.19
  60  0.822  0.018  0.353-  28 1.59  17 2.16   8 2.21
[...]
 131  0.367  0.751  0.624-  43 1.53  23 1.95
 132  0.865  0.751  0.628-  48 1.54  24 1.94
 133  0.960  0.916  0.696-  46 1.54  21 1.97
 134  0.461  0.916  0.556-  45 1.54  18 1.97
 135  0.037  0.753  0.810-  48 1.53  23 1.99
 136  0.539  0.751  0.946-  47 1.54  20 1.96
 137  0.677  0.981  0.603-  45 1.58   8 2.16  21 2.21
 138  0.177  0.852  0.648-  46 1.58  23 2.15  18 2.22
 139  0.321  0.815  0.899-  47 1.58  22 2.17  23 2.21
 140  0.821  0.686  0.852-  48 1.59  13 2.11  20 2.24
 141  0.323  0.686  0.899-  47 1.58  14 2.19  23 2.24
 142  0.818  0.815  0.853-  48 1.59  21 2.16  20 2.19
 143  0.678  0.852  0.603-  45 1.58  24 2.15  21 2.22
 144  0.177  0.981  0.648-  46 1.58   7 2.16  18 2.22
 145  0.526  0.474  0.746-  99 2.27 111 2.28 104 2.30

IMPORTANT INFORMATION: All symmetrisations will be switched off!
NOSYMM: (Re-)initialisation of all symmetry stuff for point group C_1.

                                     Primitive cell

  volume of cell :    1920.7920

[...]
   0.855E+02 -.530E+01 -.548E+01   -.844E+02 0.481E+01 0.824E+01   -.109E+01 0.497E+00 -.277E+01
   -.104E+03 -.779E+01 -.193E+02   0.103E+03 0.804E+01 0.214E+02   0.898E+00 -.260E+00 -.209E+01
   -.699E+02 -.484E+02 0.274E+02   0.668E+02 0.464E+02 -.294E+02   0.316E+01 0.195E+01 0.206E+01
   0.127E+03 0.415E+01 0.231E+02   -.125E+03 -.444E+01 -.253E+02   -.187E+01 0.282E+00 0.219E+01
   0.201E+02 0.828E+01 -.740E+02   -.182E+02 -.951E+01 0.761E+02   -.187E+01 0.123E+01 -.209E+01
   -.157E+03 -.286E+02 -.109E+02   0.158E+03 0.297E+02 0.132E+02   -.437E+00 -.117E+01 -.229E+01
   -.335E+02 -.202E+02 -.281E+01   0.324E+02 0.195E+02 0.143E+00   0.118E+01 0.712E+00 0.268E+01
   0.152E+03 0.104E+02 -.308E+01   -.153E+03 -.113E+02 0.431E+00   0.160E+01 0.907E+00 0.264E+01
   0.301E+02 0.570E+00 0.397E+02   -.278E+02 -.236E+01 -.375E+02   -.227E+01 0.178E+01 -.215E+01
   -.894E+02 -.899E+00 -.984E+01   0.882E+02 0.109E+01 0.125E+02   0.117E+01 -.193E+00 -.270E+01
   -.838E+02 0.254E+00 0.563E+01   0.825E+02 0.259E-01 -.856E+01   0.126E+01 -.280E+00 0.294E+01
   0.895E+02 -.601E+00 0.347E+01   -.881E+02 0.958E+00 -.630E+01   -.140E+01 -.355E+00 0.285E+01
   0.816E+02 -.424E+01 -.167E+02   -.807E+02 0.484E+01 0.193E+02   -.943E+00 -.597E+00 -.264E+01
   -.845E+02 -.102E+01 0.119E+00   0.833E+02 0.131E+01 0.281E+01   0.114E+01 -.289E+00 -.293E+01
   -.842E+02 -.227E+01 0.564E+01   0.829E+02 0.243E+01 -.835E+01   0.122E+01 -.162E+00 0.272E+01
   0.800E+02 -.209E+02 -.932E+01   -.792E+02 0.198E+02 0.573E+01   -.801E+00 0.113E+01 0.360E+01
   0.794E+02 -.408E+01 0.274E+01   -.783E+02 0.473E+01 -.409E-01   -.109E+01 -.654E+00 -.271E+01
   0.777E+02 0.869E+01 0.114E+01   -.778E+02 -.884E+01 -.300E+01   0.182E+00 0.150E+00 0.195E+01
   0.794E+02 0.175E+01 0.306E+01   -.785E+02 -.185E+01 -.111E+01   -.960E+00 0.102E+00 -.204E+01
   -.785E+02 -.152E+01 -.222E+01   0.777E+02 0.141E+01 0.439E+01   0.834E+00 0.115E+00 -.227E+01
   -.805E+02 0.205E+01 0.534E-01   0.801E+02 -.204E+01 -.200E+01   0.383E+00 -.116E-01 0.205E+01
   0.776E+02 0.159E+02 0.334E+01   -.772E+02 -.155E+02 -.503E+01   -.374E+00 -.364E+00 0.176E+01
   0.800E+02 -.402E+01 -.854E+01   -.787E+02 0.427E+01 0.997E+01   -.141E+01 -.270E+00 -.150E+01
   -.758E+02 -.209E+00 -.526E+00   0.750E+02 0.460E+00 0.220E+01   0.808E+00 -.263E+00 -.176E+01
   -.793E+02 -.130E+01 0.364E+01   0.794E+02 0.130E+01 -.528E+01   -.486E-01 0.371E-02 0.172E+01
   0.673E+02 -.157E+02 -.129E+02   -.675E+02 0.155E+02 0.121E+02   0.151E+00 0.124E+00 0.813E+00
   0.820E+02 -.760E+00 0.201E+01   -.811E+02 0.936E+00 -.106E+00   -.923E+00 -.188E+00 -.200E+01
   -.565E+02 0.145E+02 0.155E+02   0.558E+02 -.145E+02 -.125E+02   0.675E+00 -.415E-01 -.316E+01
   -.887E+02 0.556E+00 0.657E+01   0.884E+02 -.258E+00 -.827E+01   0.314E+00 -.313E+00 0.179E+01
   0.638E+02 -.291E+02 0.316E+02   -.631E+02 0.288E+02 -.333E+02   -.653E+00 0.408E+00 0.180E+01
   0.833E+02 0.770E+01 -.890E+01   -.816E+02 -.791E+01 0.100E+02   -.174E+01 0.218E+00 -.120E+01
   -.331E+02 0.194E+02 -.230E+02   0.310E+02 -.195E+02 0.245E+02   0.222E+01 0.999E-01 -.150E+01
   -.998E+02 0.444E+01 0.721E+01   0.102E+03 -.435E+01 -.832E+01   -.251E+01 -.934E-01 0.116E+01
   0.798E+02 -.217E+01 0.287E+00   -.795E+02 0.219E+01 -.219E+01   -.309E+00 -.275E-01 0.200E+01
   0.786E+02 -.155E+01 -.247E+01   -.778E+02 0.157E+01 0.425E+01   -.780E+00 -.149E-01 -.186E+01
   -.764E+02 -.256E+01 -.249E+00   0.757E+02 0.265E+01 0.246E+01   0.732E+00 -.911E-01 -.231E+01
   -.806E+02 -.209E+01 0.911E+00   0.802E+02 0.190E+01 -.278E+01   0.480E+00 0.196E+00 0.197E+01
   0.792E+02 -.226E+01 0.304E+01   -.788E+02 0.226E+01 -.484E+01   -.425E+00 0.308E-02 0.189E+01
   0.787E+02 -.153E+01 -.251E+00   -.780E+02 0.153E+01 0.212E+01   -.684E+00 0.110E-03 -.196E+01
   -.745E+02 -.535E+01 -.286E+01   0.737E+02 0.510E+01 0.451E+01   0.823E+00 0.254E+00 -.173E+01
   -.803E+02 -.311E+01 0.218E+01   0.805E+02 0.338E+01 -.406E+01   -.257E+00 -.285E+00 0.197E+01
   0.208E+03 0.981E+01 0.538E+02   -.214E+03 -.964E+01 -.856E+02   0.541E+01 -.181E+00 0.318E+02
   0.214E+03 0.572E+01 -.552E+02   -.220E+03 -.596E+01 0.874E+02   0.645E+01 0.249E+00 -.322E+02
   -.210E+03 0.130E+01 -.554E+02   0.216E+03 -.143E+01 0.873E+02   -.626E+01 0.130E+00 -.319E+02
   -.215E+03 0.266E+01 0.572E+02   0.220E+03 -.286E+01 -.895E+02   -.586E+01 0.203E+00 0.322E+02
   -.594E+02 -.138E+01 0.131E+03   0.333E+02 0.168E+01 -.144E+03   0.261E+02 -.303E+00 0.128E+02
   -.376E+02 0.172E+02 -.134E+03   0.102E+02 -.182E+02 0.148E+03   0.274E+02 0.953E+00 -.135E+02
   0.488E+02 0.154E+01 -.125E+03   -.221E+02 -.152E+01 0.137E+03   -.268E+02 -.203E-01 -.125E+02
   0.534E+02 -.232E+01 0.126E+03   -.273E+02 0.291E+01 -.138E+03   -.261E+02 -.588E+00 0.126E+02
   0.700E+02 -.502E+02 -.653E+02   -.587E+02 0.729E+02 0.812E+02   -.112E+02 -.227E+02 -.159E+02
   0.788E+02 0.685E+02 0.648E+02   -.672E+02 -.922E+02 -.811E+02   -.116E+02 0.237E+02 0.163E+02
   -.767E+02 -.660E+02 0.504E+02   0.654E+02 0.896E+02 -.657E+02   0.113E+02 -.236E+02 0.153E+02
   -.809E+02 0.653E+02 -.612E+02   0.697E+02 -.887E+02 0.772E+02   0.112E+02 0.233E+02 -.160E+02
[...]
   -.213E+03 -.406E+01 0.602E+02   0.219E+03 0.389E+01 -.922E+02   -.614E+01 0.168E+00 0.321E+02
   -.517E+02 -.813E+00 0.126E+03   0.252E+02 0.698E+00 -.139E+03   0.266E+02 0.112E+00 0.123E+02
   -.490E+02 -.104E+01 -.125E+03   0.222E+02 0.883E+00 0.138E+03   0.268E+02 0.151E+00 -.126E+02
   0.410E+02 -.519E+01 -.136E+03   -.135E+02 0.621E+01 0.149E+03   -.275E+02 -.103E+01 -.135E+02
   0.557E+02 -.593E+01 0.125E+03   -.295E+02 0.595E+01 -.137E+03   -.261E+02 -.234E-01 0.125E+02
   0.801E+02 -.659E+02 -.577E+02   -.689E+02 0.893E+02 0.737E+02   -.112E+02 -.234E+02 -.160E+02
   0.792E+02 0.593E+02 0.644E+02   -.680E+02 -.826E+02 -.806E+02   -.112E+02 0.232E+02 0.162E+02
   -.773E+02 -.686E+02 0.568E+02   0.660E+02 0.921E+02 -.725E+02   0.113E+02 -.235E+02 0.157E+02
   -.837E+02 0.487E+02 -.684E+02   0.726E+02 -.706E+02 0.847E+02   0.111E+02 0.220E+02 -.163E+02
   -.669E+02 0.575E+02 0.587E+02   0.552E+02 -.815E+02 -.749E+02   0.117E+02 0.239E+02 0.162E+02
   -.772E+02 -.697E+02 -.524E+02   0.654E+02 0.930E+02 0.677E+02   0.118E+02 -.233E+02 -.153E+02
   0.791E+02 0.594E+02 -.595E+02   -.679E+02 -.826E+02 0.756E+02   -.112E+02 0.232E+02 -.161E+02
   0.795E+02 -.641E+02 0.627E+02   -.684E+02 0.875E+02 -.788E+02   -.111E+02 -.234E+02 0.161E+02
   0.325E+02 0.757E+01 0.182E+01   -.338E+02 -.738E+01 -.201E+01   0.120E+01 0.141E+00 0.263E+00
   -.814E+00 -.393E+01 -.323E+01   -.327E-12 0.200E-11 0.103E-12   0.826E+00 0.392E+01 0.320E+01

 POSITION                                       TOTAL-FORCE (eV/Angst)
      8.13955      4.60617      2.52035        -0.000309      0.001866      0.000131
      2.90833      4.65754      4.87054         0.001104     -0.000625      0.003003
      2.28582      1.55588      2.41831        -0.001248     -0.002524      0.000846
      7.47634      1.53005      0.07015         0.001174      0.002663      0.000735
      8.11667      4.61724      7.48673        -0.004924      0.004779     -0.001052
      2.94048      4.67362      9.82529        -0.000090     -0.005642     -0.001863
      2.26721      1.52856      7.36484        -0.000805     -0.000327     -0.000411
      7.48024      1.53626      5.01451        -0.001469      0.000582      0.002250
      8.14287     10.90195      2.51144         0.003948     -0.012626     -0.004089
      2.90989     10.87363      4.85430         0.002688     -0.003968     -0.004954
      2.28271      7.76226      2.43332         0.005639     -0.003997      0.006978
      7.50597      7.72076      0.08342         0.003393     -0.012274     -0.011632
      8.15154     10.94990      7.48877         0.007487     -0.004540     -0.003657
      2.94238     10.86603      9.83870        -0.000999      0.003802      0.005040
      2.17455      7.71451      7.29095         0.002941     -0.016231     -0.003292
      7.50922      7.69796      4.89672        -0.005728     -0.010128      0.016220
      8.12809     17.10394      2.54123        -0.001551      0.000160      0.001205
      2.91851     17.10256      4.88887         0.000400     -0.000113      0.001043
      2.28535     13.99939      2.41853        -0.000973      0.003117      0.000679
      7.47234     14.02574      0.07298        -0.000329     -0.000361     -0.001214
      8.11049     17.10483      7.49444         0.000321      0.000090      0.000740
      2.91857     17.10441      9.84015        -0.000301     -0.000329     -0.000882
      2.26854     14.01931      7.36637        -0.001284     -0.001453      0.000311
      7.48624     14.02199      5.00716         0.000432      0.002059     -0.000900
      6.32324      4.63651      0.30393        -0.000171     -0.003870      0.002876
      1.11696      4.64836      2.16558         0.000472     -0.002095      0.000285
      4.08689      1.53640      4.66623        -0.001401     -0.001128      0.000298
      9.29721      1.53757      2.76889         0.000128     -0.000295      0.004249
      6.31160      4.65578      5.22574        -0.000685     -0.005228     -0.002741
      1.10823      4.57092      7.10906        -0.002143     -0.000452      0.000470
      4.08568      1.54610      9.60820        -0.001359     -0.000699     -0.000077
      9.28034      1.52601      7.72859         0.000349     -0.000427      0.002817
      6.32564     10.89139      0.30132        -0.000073     -0.005738     -0.003038
      1.11862     10.89392      2.15506         0.001455     -0.002541     -0.005217
      4.10519      7.76854      4.63463         0.011523      0.002799      0.006829
      9.31443      7.77744      2.74413        -0.003342     -0.000955     -0.002498
      6.33269     10.90596      5.21753         0.009808      0.006826     -0.011487
      1.13010     10.96371      7.10611         0.005648     -0.004158     -0.001941
      4.08194      7.74680      9.67918         0.002332     -0.009062     -0.009728
      9.21657      7.77313      7.68719         0.004765      0.000365     -0.003873
      6.30569     17.10062      0.30624        -0.001961     -0.001110      0.002517
      1.11410     17.09944      2.18622        -0.000114     -0.000798      0.000588
      4.08860     13.99749      4.66862         0.000039     -0.003996      0.000767
      9.29564     13.99723      2.76606        -0.000117     -0.004251      0.000551
      6.31186     17.09988      5.24243        -0.003100     -0.000968      0.003023
      1.10373     17.09930      7.13483         0.000263     -0.001802      0.000954
      4.08463     13.99612      9.60973        -0.001853     -0.002151      0.000226
      9.28191     14.01471      7.72609         0.000028     -0.004481     -0.000573
      6.62190      4.65200      3.71990        -0.001018     -0.006304     -0.001121
      1.39143      4.63888      3.67615         0.001979      0.000642      0.002438
      3.80304      1.54375      1.22596        -0.001701     -0.000299     -0.000728
      9.00548      1.53037      1.26096        -0.001910     -0.001091      0.002584
     10.00235      4.64744      1.90767         0.002752     -0.004172      0.002877
      4.81462      4.61854      0.58458        -0.003415     -0.000329      0.000890
      0.40781      1.54132      3.02220        -0.000785     -0.001608      0.002034
      5.60861      1.55292      4.40740        -0.000816     -0.001347      0.001060
      7.07280      5.84288      1.01377        -0.000116     -0.003104      0.000756
      1.85755      3.44971      1.44833        -0.003987     -0.003983      0.000710
      3.33818      2.73267      3.94327        -0.002005     -0.002532     -0.001221
      8.55529      0.34085      3.49704        -0.001265     -0.002383      0.002837
[...]
      3.81505     14.01906      6.17835         0.000207     -0.001541      0.000419
      9.00288     14.00932      6.21461         0.000662      0.000487      0.000933
      9.98911     17.09707      6.88878        -0.002605     -0.002726      0.000161
      4.79507     17.09606      5.49653        -0.000786     -0.004441      0.002012
      0.38277     14.04321      8.01104         0.000616     -0.006380      0.001543
      5.60617     14.00297      9.35832        -0.000488     -0.002302     -0.001050
      7.04855     18.30232      5.96445        -0.001677     -0.000761      0.002346
      1.84108     15.89779      6.41169        -0.000719     -0.002777      0.001166
      3.34531     15.20173      8.89536        -0.001475     -0.003201     -0.000051
      8.54178     12.79824      8.43319        -0.000448     -0.008394     -0.004713
      3.35839     12.79173      8.89023         0.000289     -0.004811      0.000965
      8.51482     15.20204      8.44341        -0.000459     -0.006707      0.002759
      7.05193     15.89838      5.96308         0.000229     -0.000955      0.002366
      1.84005     18.29979      6.40913        -0.000525     -0.002391      0.001058
      5.47517      8.84057      7.37657        -0.127090      0.323933      0.070209
    total drift:                                0.011624     -0.006097     -0.026426

  FREE ENERGIE OF THE ION-ELECTRON SYSTEM (eV)
  free  energy   TOTEN  =     -1017.25848718 eV

  energy  without entropy=    -1017.25848718  energy(sigma->0) =    -1017.25848718

 writing wavefunctions

 total charge

[...]

 magnetization (x)

# of ion       s       p       d       tot
    1        0.024   0.031   4.289   4.344
    2        0.024   0.032   4.285   4.342
    3        0.024   0.031   4.290   4.345
    4        0.024   0.031   4.291   4.346
    5        0.024   0.031   4.287   4.343
    6        0.023   0.031   4.293   4.347
    7        0.023   0.031   4.295   4.349
    8        0.024   0.031   4.289   4.344
    9        0.024   0.031   4.292   4.347
   10        0.024   0.033   4.284   4.341
   11        0.025   0.031   4.291   4.346
   12        0.024   0.032   4.285   4.341
   13        0.024   0.030   4.284   4.339
   14        0.023   0.031   4.291   4.345
   15        0.027   0.020   3.738   3.785
   16        0.024   0.033   4.270   4.327
   17        0.024   0.031   4.291   4.345
   18        0.024   0.031   4.292   4.346
   19        0.024   0.031   4.290   4.345
   20        0.024   0.031   4.291   4.346
   21        0.024   0.031   4.292   4.346
   22        0.024   0.031   4.292   4.346
   23        0.023   0.031   4.295   4.349
   24        0.024   0.031   4.289   4.344
   25        0.003   0.011   0.000   0.015
   26        0.003   0.012   0.000   0.015
   27        0.003   0.011   0.000   0.015
   28        0.003   0.011   0.000   0.015
   29        0.003   0.011   0.000   0.015
   30        0.004   0.012   0.000   0.016
   31        0.003   0.012   0.000   0.015
   32        0.003   0.011   0.000   0.015
   33        0.003   0.010   0.000   0.013
   34        0.003   0.012   0.000   0.015
   35        0.003   0.010   0.000   0.013
   36        0.004   0.012   0.000   0.015
   37        0.003   0.010   0.000   0.013
   38        0.004   0.012   0.000   0.016
   39        0.004   0.012   0.000   0.016
   40        0.003   0.010   0.000   0.013
   41        0.003   0.011   0.000   0.015
   42        0.003   0.011   0.000   0.015
   43        0.003   0.011   0.000   0.015
   44        0.003   0.011   0.000   0.015
   45        0.003   0.012   0.000   0.015
   46        0.004   0.012   0.000   0.015
   47        0.003   0.012   0.000   0.015
   48        0.003   0.011   0.000   0.015
   49        0.007   0.108   0.000   0.115
   50        0.007   0.108   0.000   0.115
   51        0.007   0.112   0.000   0.119
   52        0.007   0.108   0.000   0.115
   53        0.008   0.105   0.000   0.113
   54        0.008   0.095   0.000   0.102
   55        0.008   0.099   0.000   0.107
   56        0.008   0.105   0.000   0.113
   57        0.010   0.127   0.000   0.137
   58        0.010   0.121   0.000   0.131
   59        0.010   0.122   0.000   0.132
   60        0.010   0.126   0.000   0.136
[...]
  131        0.007   0.106   0.000   0.113
  132        0.007   0.109   0.000   0.116
  133        0.008   0.102   0.000   0.110
  134        0.008   0.100   0.000   0.108
  135        0.008   0.095   0.000   0.103
  136        0.008   0.105   0.000   0.113
  137        0.010   0.126   0.000   0.136
  138        0.010   0.123   0.000   0.134
  139        0.010   0.121   0.000   0.131
  140        0.010   0.129   0.000   0.139
  141        0.010   0.121   0.000   0.131
  142        0.010   0.126   0.000   0.137
  143        0.010   0.126   0.000   0.136
  144        0.010   0.124   0.000   0.134
  145        0.000   0.000   0.000   0.000
tot          1.485  11.722 102.388 115.594