 vasp.6.4.0 14Feb23 (build Mar 11 2024 14:58:30) complex
 executed on             epyc9004 date 2024.08.19  18:57:37

 INCAR:
   ENCUT = 520.000000
   SIGMA = 0.050000
   TIME = 0.050000
   NUPDOWN = 119.000000
   EDIFF = 1.00e-06
   EDIFFG = -2.00e-02
   SYMPREC = 1.00e-07
   ALGO = all
   GGA = PE
   PREC = accurate
   IBRION = 2
   ISIF = 2
   ISMEAR = 0
   ISPIN = 2
   ISYM = 0
   KPAR = 3
   LMAXMIX = 4
   LORBIT = 12
   NELM = 300
   NELMIN = 8
   NSW = 1
   NCORE = 4
   LASPH = .TRUE.
   LCHARG = .TRUE.
   LDAU = .TRUE.
   LWAVE = .TRUE.
   LREAL = auto
   LDAUL = 2 -1 -1 -1
   LDAUU = 5.300 0.000 0.000 0.000
   LDAUJ = 0.000 0.000 0.000 0.000
   MAGMOM = 1*4.3460 1*4.3405 1*4.3445 1*4.3460 1*4.3420 1*4.3445 1*4.3490 1*4.3450 1*4.3460 1*4.3405 1*4.3460 1*4.3430 1*4.3420 1*4.3445 1*3.7850 1*4.3300 1*4.3450 1*4.3460 1*4.3445 1*4.3460 1*4.3470 1*4.3465 1*4.3490 1*4.3450 1*0.0140 3*0.0150 1*0.0140 1*0.0160 2*0.0150 1*0.0140 1*0.0150 1*0.0130 1*0.0150 1*0.0140 2*0.0160 1*0.0130 8*0.0150 1*0.1095 1*0.1165 1*0.1190 1*0.1155 1*0.1120 1*0.1015 1*0.1080 1*0.1110 1*0.1330 1*0.1315 1*0.1305 2*0.1360 1*0.1345 1*0.1335 1*0.1350 1*0.1055 1*0.1185 1*0.1125 1*0.1170 1*0.1205 1*0.0940 1*0.1035 1*0.1120 1*0.1235 1*0.1360 1*0.1310 1*0.1380 1*0.1315 1*0.1375 1*0.1315 1*0.1220 1*0.1095 1*0.1165 1*0.1120 1*0.1170 1*0.1120 1*0.1015 1*0.1070 1*0.1040 1*0.1335 1*0.1350 1*0.1355 1*0.1345 1*0.1355 1*0.1345 1*0.1330 1*0.1315 1*0.1055 1*0.1185 1*0.0300 1*0.1250 1*0.1210 1*0.0940 1*0.0490 1*0.1000 1*0.1315 1*0.1220 1*0.0950 1*0.1375 1*0.0950 1*0.1375 1*0.1235 1*0.1360 1*0.1170 1*0.1180 1*0.1190 1*0.1155 1*0.1110 2*0.1080 1*0.1110 1*0.1365 1*0.1350 1*0.1360 1*0.1345 1*0.1305 1*0.1360 1*0.1365 1*0.1350 1*0.1170 1*0.1160 1*0.1125 1*0.1170 1*0.1095 1*0.1080 1*0.1035 1*0.1120 1*0.1360 1*0.1340 1*0.1315 1*0.1380 1*0.1315 1*0.1380 1*0.1360 1*0.1340 1*0.0000

 POTCAR:    PAW_PBE Fe_pv 02Aug2007
 POTCAR:    PAW_PBE P 06Sep2000
 POTCAR:    PAW_PBE O 08Apr2002
 POTCAR:    PAW_PBE Na_pv 19Sep2006
|           W    W    AA    RRRRR   N    N  II  N    N   GGGG   !!!           |
|           W    W   A  A   R    R  NN   N  II  NN   N  G    G  !!!           |
|           W    W  A    A  R    R  N N  N  II  N N  N  G       !!!           |
|           W WW W  AAAAAA  RRRRR   N  N N  II  N  N N  G  GGG   !            |
|           WW  WW  A    A  R   R   N   NN  II  N   NN  G    G                |
|           W    W  A    A  R    R  N    N  II  N    N   GGGG   !!!           |
|     For optimal performance we recommend to set                             |
|       NCORE = 2 up to number-of-cores-per-socket                            |
|     This setting can greatly improve the performance of VASP for DFT.       |
|     The default, NCORE=1 might be grossly inefficient on modern             |
|     multi-core architectures or massively parallel machines. Do your        |
|     Unfortunately you need to use the default for GW and RPA                |
|     calculations (for HF NCORE is supported but not extensively tested      |
|     yet).                                                                   |

 POTCAR:    PAW_PBE Fe_pv 02Aug2007
   VRHFIN =Fe:  3pd7s1

   TITEL  = PAW_PBE Fe_pv 02Aug2007
   POMASS =   55.847; ZVAL   =   14.000    mass and valenz
   ENMAX  =  293.238; ENMIN  =  219.928 eV

 POTCAR:    PAW_PBE P 06Sep2000
   VRHFIN =P : s2p3

   TITEL  = PAW_PBE P 06Sep2000
   POMASS =   30.974; ZVAL   =    5.000    mass and valenz
   ENMAX  =  255.040; ENMIN  =  191.280 eV

 POTCAR:    PAW_PBE O 08Apr2002
   VRHFIN =O: s2p4

   TITEL  = PAW_PBE O 08Apr2002
   POMASS =   16.000; ZVAL   =    6.000    mass and valenz
   ENMAX  =  400.000; ENMIN  =  300.000 eV

 POTCAR:    PAW_PBE Na_pv 19Sep2006
   VRHFIN =Na: p6s1

   TITEL  = PAW_PBE Na_pv 19Sep2006
   POMASS =   22.990; ZVAL   =    7.000    mass and valenz
   ENMAX  =  259.561; ENMIN  =  194.671 eV

 Optimization of the real space projectors (new method)

 maximal supplied QI-value         = 17.01
 optimisation between [QCUT,QGAM] = [ 11.57, 23.30] = [ 37.45,152.03] Ry
 Optimized for a Real-space Cutoff    1.45 Angstroem

   l    n(q)    QCUT    max X(q) W(low)/X(q) W(high)/X(q)  e(spline)
   1     10    11.565     4.267    0.91E-04    0.15E-03    0.13E-06
   1     10    11.565     5.750    0.14E-03    0.22E-03    0.20E-06
   2      9    11.565    53.656    0.13E-03    0.57E-04    0.16E-06
   2      9    11.565    49.521    0.13E-03    0.59E-04    0.16E-06
   0     10    11.565    31.246    0.61E-04    0.74E-05    0.89E-07
   0     10    11.565    12.201    0.44E-04    0.68E-05    0.74E-07
 Optimization of the real space projectors (new method)

[...]

   l    n(q)    QCUT    max X(q) W(low)/X(q) W(high)/X(q)  e(spline)
   0      8    11.635    20.381    0.10E-03    0.33E-03    0.24E-06
   0      8    11.635    15.268    0.11E-03    0.35E-03    0.26E-06
   1      7    11.635     5.964    0.24E-03    0.31E-03    0.30E-06
   1      7    11.635     5.382    0.22E-03    0.25E-03    0.26E-06
 Optimization of the real space projectors (new method)

 maximal supplied QI-value         = 17.01
 optimisation between [QCUT,QGAM] = [ 11.57, 23.30] = [ 37.45,152.03] Ry
 Optimized for a Real-space Cutoff    1.45 Angstroem

   l    n(q)    QCUT    max X(q) W(low)/X(q) W(high)/X(q)  e(spline)
   1     10    11.565     4.940    0.87E-04    0.13E-03    0.13E-06
   1     10    11.565     6.253    0.13E-03    0.19E-03    0.20E-06
   0     10    11.565    37.438    0.53E-04    0.73E-05    0.79E-07
   0     10    11.565     9.606    0.27E-04    0.60E-05    0.56E-07
  PAW_PBE Fe_pv 02Aug2007               :
  PAW_PBE P 06Sep2000                   :
  PAW_PBE O 08Apr2002                   :
  PAW_PBE Na_pv 19Sep2006               :

 POSCAR: Fe P  O  Na
  positions in cartesian coordinates
 exchange correlation table for  LEXCH =        8
   RHO(1)=    0.500       N(1)  =     2000
   RHO(2)=  100.500       N(2)  =     4000

 ion  position               nearest neighbor table
   1  0.782  0.247  0.255-  49 1.94  53 1.96  62 2.14  63 2.17  92 2.21  57 2.22  25 2.86
   2  0.279  0.250  0.492-  50 1.93  70 1.98  80 2.07  93 2.17  59 2.18  74 2.35  30 2.87
   3  0.220  0.083  0.244-  51 1.93  55 1.98  58 2.17 128 2.18  59 2.20  61 2.23
   4  0.718  0.082  0.007-  52 1.94  72 1.96 121 2.15  63 2.18  76 2.20  78 2.21  32 2.88
   5  0.781  0.246  0.758-  65 1.94  69 1.96  78 2.13  79 2.15 108 2.19  73 2.34
   6  0.283  0.251  0.993-  66 1.94  54 1.98 109 2.09  75 2.19  64 2.21  58 2.24
   7  0.218  0.082  0.744-  67 1.95  71 1.99  74 2.07 144 2.16  77 2.22  75 2.23
   8  0.719  0.082  0.506-  68 1.93  56 1.96 137 2.15  60 2.20  62 2.23  79 2.23
   9  0.782  0.586  0.255-  81 1.94  85 1.96 124 2.14  89 2.17  94 2.21  95 2.22  33 2.86
  10  0.279  0.583  0.492-  82 1.93 102 1.98 106 2.07  91 2.17 125 2.18 112 2.35  38 2.87
  11  0.220  0.417  0.245-  83 1.92  87 1.95  91 2.19  93 2.19  90 2.19  64 2.19  35 2.84
  12  0.721  0.417  0.011-  84 1.92 104 1.98  95 2.17  57 2.17 108 2.21 110 2.21  40 2.88
  13  0.781  0.587  0.758-  97 1.94 101 1.96 140 2.13 105 2.15 110 2.19 111 2.34
  14  0.283  0.582  0.993-  98 1.94  86 1.98 107 2.09 141 2.19  90 2.21  96 2.24
  15  0.209  0.417  0.737- 103 2.00  99 2.05 106 2.30  80 2.31
  16  0.724  0.417  0.489- 100 1.92  88 1.98  92 2.11  94 2.11 111 2.23  73 2.23  36 2.77
  17  0.781  0.917  0.257- 113 1.94 117 1.97  60 2.17 126 2.17 121 2.21 127 2.21
  18  0.281  0.917  0.494- 114 1.93 134 1.97  61 2.16 123 2.16 138 2.22 144 2.22
  19  0.220  0.750  0.244- 115 1.93 119 1.98  96 2.17 122 2.18 125 2.20 123 2.23
  20  0.718  0.752  0.008- 116 1.94 136 1.96 127 2.15  89 2.18 142 2.20 140 2.21  48 2.88
  21  0.780  0.917  0.757- 129 1.94 133 1.97  76 2.15 142 2.15 137 2.22 143 2.22
  22  0.280  0.917  0.995- 130 1.94 118 1.97  77 2.16 139 2.16 128 2.21 122 2.21  42 2.88
  23  0.218  0.751  0.745- 131 1.95 135 1.99 112 2.07 138 2.16 139 2.22 141 2.23
  24  0.719  0.751  0.506- 132 1.93 120 1.96 143 2.15 126 2.20 124 2.22 105 2.23
  25  0.608  0.249  0.032-  54 1.53  65 1.54  63 1.59  57 1.59   1 2.86
  26  0.107  0.249  0.218-  50 1.54  53 1.54  58 1.58  64 1.58
  27  0.393  0.083  0.472-  67 1.53  56 1.55  61 1.58  59 1.59
  28  0.893  0.083  0.280-  52 1.54  55 1.54  60 1.59  62 1.59
  29  0.606  0.251  0.529-  49 1.54  70 1.54  73 1.58  79 1.59
  30  0.107  0.245  0.718-  66 1.54  69 1.55  80 1.58  74 1.58   2 2.87
  31  0.393  0.083  0.971-  51 1.54  72 1.54  75 1.58  77 1.58
  32  0.892  0.082  0.781-  71 1.53  68 1.54  76 1.58  78 1.59   4 2.88
  33  0.608  0.584  0.031-  86 1.53  97 1.54  89 1.59  95 1.59   9 2.86
  34  0.107  0.584  0.218-  82 1.54  85 1.54  96 1.58  90 1.58
  35  0.393  0.417  0.467-  99 1.53  88 1.55  93 1.58  91 1.58  11 2.84
  36  0.897  0.417  0.277-  87 1.53  84 1.53  92 1.59  94 1.59  16 2.77
  37  0.606  0.582  0.529-  81 1.54 102 1.54 111 1.58 105 1.59
  38  0.107  0.588  0.718-  98 1.54 101 1.55 106 1.58 112 1.58  10 2.87
  39  0.392  0.417  0.978-  83 1.53 109 1.57 107 1.57 104 1.57
  40  0.885  0.417  0.777- 103 1.51 100 1.54 108 1.59 110 1.59  12 2.88
  41  0.606  0.917  0.031- 129 1.54 118 1.54 127 1.59 121 1.59
  42  0.107  0.917  0.221- 114 1.54 117 1.54 128 1.58 122 1.58  22 2.88
  43  0.393  0.751  0.472- 131 1.53 120 1.55 123 1.58 125 1.59
  44  0.893  0.751  0.280- 116 1.54 119 1.54 126 1.59 124 1.59
  45  0.607  0.917  0.530- 113 1.54 134 1.54 143 1.58 137 1.58
  46  0.106  0.917  0.721- 130 1.54 133 1.54 144 1.58 138 1.58
  47  0.393  0.750  0.971- 115 1.54 136 1.54 141 1.58 139 1.58
  48  0.892  0.751  0.781- 135 1.53 132 1.54 142 1.58 140 1.59  20 2.88
  49  0.637  0.251  0.378-  29 1.54   1 1.94
  50  0.133  0.249  0.371-  26 1.54   2 1.93
  51  0.366  0.083  0.124-  31 1.54   3 1.93
  52  0.865  0.082  0.128-  28 1.54   4 1.94
  53  0.961  0.249  0.192-  26 1.54   1 1.96
  54  0.463  0.248  0.060-  25 1.53   6 1.98
  55  0.039  0.083  0.306-  28 1.54   3 1.98
  56  0.539  0.084  0.446-  27 1.55   8 1.96
  57  0.680  0.314  0.103-  25 1.59  12 2.17   1 2.22
  58  0.178  0.185  0.146-  26 1.58   3 2.17   6 2.24
  59  0.321  0.147  0.399-  27 1.59   2 2.18   3 2.20
  60  0.822  0.018  0.354-  28 1.59  17 2.17   8 2.20
[...]
 131  0.366  0.751  0.624-  43 1.53  23 1.95
 132  0.864  0.750  0.629-  48 1.54  24 1.93
 133  0.960  0.917  0.696-  46 1.54  21 1.97
 134  0.461  0.917  0.556-  45 1.54  18 1.97
 135  0.037  0.753  0.809-  48 1.53  23 1.99
 136  0.539  0.751  0.946-  47 1.54  20 1.96
 137  0.678  0.981  0.603-  45 1.58   8 2.15  21 2.22
 138  0.177  0.852  0.648-  46 1.58  23 2.16  18 2.22
 139  0.322  0.815  0.899-  47 1.58  22 2.16  23 2.22
 140  0.821  0.687  0.854-  48 1.59  13 2.13  20 2.21
 141  0.323  0.686  0.898-  47 1.58  14 2.19  23 2.23
 142  0.819  0.816  0.853-  48 1.58  21 2.15  20 2.20
 143  0.678  0.852  0.603-  45 1.58  24 2.15  21 2.22
 144  0.177  0.981  0.648-  46 1.58   7 2.16  18 2.22
 145  0.560  0.417  0.726-  99 2.23 104 2.23

IMPORTANT INFORMATION: All symmetrisations will be switched off!
NOSYMM: (Re-)initialisation of all symmetry stuff for point group C_1.

                                     Primitive cell

  volume of cell :    1920.7920

[...]
   0.881E+02 -.804E+01 -.843E+01   -.869E+02 0.702E+01 0.109E+02   -.118E+01 0.103E+01 -.250E+01
   -.104E+03 -.130E+02 -.194E+02   0.103E+03 0.140E+02 0.214E+02   0.114E+01 -.103E+01 -.203E+01
   -.773E+02 -.457E+02 0.981E+01   0.748E+02 0.438E+02 -.117E+02   0.249E+01 0.185E+01 0.187E+01
   0.129E+03 0.633E+00 0.303E+02   -.127E+03 -.629E+00 -.323E+02   -.211E+01 -.371E-02 0.202E+01
   0.156E+02 0.511E+00 -.880E+02   -.137E+02 -.515E+00 0.903E+02   -.192E+01 0.417E-02 -.232E+01
   -.128E+03 -.208E+02 -.243E+01   0.127E+03 0.224E+02 0.515E+01   0.608E+00 -.170E+01 -.272E+01
   -.536E+02 -.314E+02 0.136E+02   0.527E+02 0.300E+02 -.166E+02   0.941E+00 0.141E+01 0.303E+01
   0.144E+03 0.135E+01 -.881E+01   -.146E+03 -.132E+01 0.604E+01   0.140E+01 -.289E-01 0.276E+01
   -.101E+01 0.796E+00 0.776E+02   0.392E+01 -.794E+00 -.762E+02   -.291E+01 -.971E-03 -.146E+01
   -.892E+02 0.954E-01 -.102E+02   0.880E+02 -.925E-01 0.129E+02   0.116E+01 -.320E-02 -.270E+01
   -.826E+02 -.103E+00 0.443E+01   0.814E+02 0.996E-01 -.740E+01   0.121E+01 0.369E-02 0.299E+01
   0.884E+02 -.959E+01 0.586E+01   -.868E+02 0.933E+01 -.868E+01   -.154E+01 0.259E+00 0.282E+01
   0.855E+02 -.476E+01 -.129E+02   -.845E+02 0.523E+01 0.154E+02   -.962E+00 -.471E+00 -.250E+01
   -.832E+02 -.275E-01 0.204E+01   0.822E+02 0.254E-01 0.936E+00   0.106E+01 0.204E-02 -.298E+01
   -.839E+02 0.660E-01 0.600E+01   0.826E+02 -.602E-01 -.870E+01   0.125E+01 -.581E-02 0.271E+01
   0.757E+02 -.170E+02 -.103E+02   -.749E+02 0.158E+02 0.671E+01   -.867E+00 0.120E+01 0.358E+01
   0.882E+02 0.728E+01 -.885E+01   -.870E+02 -.626E+01 0.113E+02   -.119E+01 -.102E+01 -.247E+01
   0.759E+02 0.126E+02 -.354E+01   -.761E+02 -.127E+02 0.187E+01   0.216E+00 0.886E-01 0.176E+01
   0.795E+02 0.307E+01 0.393E+01   -.786E+02 -.325E+01 -.198E+01   -.999E+00 0.189E+00 -.205E+01
   -.787E+02 0.939E+00 -.168E+01   0.778E+02 -.105E+01 0.386E+01   0.100E+01 0.116E+00 -.229E+01
   -.808E+02 0.363E+01 0.806E-02   0.805E+02 -.363E+01 -.195E+01   0.302E+00 0.499E-02 0.204E+01
   0.717E+02 0.283E+02 0.111E+02   -.714E+02 -.280E+02 -.128E+02   -.218E+00 -.297E+00 0.178E+01
   0.800E+02 -.461E+01 -.926E+01   -.785E+02 0.492E+01 0.106E+02   -.159E+01 -.332E+00 -.137E+01
   -.750E+02 0.224E+01 -.844E+00   0.742E+02 -.198E+01 0.251E+01   0.910E+00 -.276E+00 -.175E+01
   -.799E+02 0.218E+01 0.398E+01   0.801E+02 -.232E+01 -.562E+01   -.179E+00 0.147E+00 0.172E+01
   0.759E+02 -.127E+02 -.362E+01   -.761E+02 0.128E+02 0.194E+01   0.221E+00 -.894E-01 0.177E+01
   0.795E+02 -.302E+01 0.393E+01   -.785E+02 0.320E+01 -.198E+01   -.991E+00 -.196E+00 -.205E+01
   -.492E+02 0.263E+00 0.174E+02   0.483E+02 -.271E+00 -.145E+02   0.936E+00 0.756E-02 -.306E+01
   -.930E+02 0.183E+00 0.110E+02   0.930E+02 -.188E+00 -.127E+02   0.496E-02 0.548E-02 0.181E+01
   0.716E+02 -.284E+02 0.112E+02   -.714E+02 0.281E+02 -.129E+02   -.205E+00 0.295E+00 0.178E+01
   0.800E+02 0.445E+01 -.922E+01   -.785E+02 -.477E+01 0.105E+02   -.158E+01 0.332E+00 -.137E+01
   -.335E+02 0.203E+00 -.157E+02   0.310E+02 -.212E+00 0.172E+02   0.258E+01 0.103E-01 -.148E+01
   -.111E+03 0.201E+00 0.520E+01   0.113E+03 -.204E+00 -.616E+01   -.253E+01 0.320E-02 0.999E+00
   0.800E+02 0.305E-02 0.615E+00   -.797E+02 -.141E-02 -.256E+01   -.247E+00 -.201E-02 0.204E+01
   0.783E+02 0.749E-02 -.263E+01   -.775E+02 -.707E-02 0.441E+01   -.847E+00 -.348E-03 -.186E+01
   -.787E+02 -.113E+01 -.174E+01   0.777E+02 0.124E+01 0.392E+01   0.997E+00 -.113E+00 -.229E+01
   -.808E+02 -.383E+01 0.184E-01   0.805E+02 0.384E+01 -.197E+01   0.302E+00 -.139E-01 0.205E+01
   0.789E+02 -.819E-02 0.282E+01   -.786E+02 0.567E-02 -.461E+01   -.332E+00 0.224E-02 0.189E+01
   0.784E+02 -.161E-01 -.115E+00   -.777E+02 0.164E-01 0.196E+01   -.718E+00 -.707E-03 -.194E+01
   -.751E+02 -.236E+01 -.865E+00   0.742E+02 0.211E+01 0.254E+01   0.905E+00 0.266E+00 -.176E+01
   -.799E+02 -.234E+01 0.396E+01   0.801E+02 0.248E+01 -.560E+01   -.172E+00 -.149E+00 0.172E+01
   0.202E+03 0.155E+02 0.555E+02   -.207E+03 -.152E+02 -.873E+02   0.489E+01 -.296E+00 0.318E+02
   0.214E+03 0.812E+01 -.551E+02   -.221E+03 -.829E+01 0.873E+02   0.653E+01 0.180E+00 -.322E+02
   -.210E+03 0.383E+01 -.558E+02   0.216E+03 -.400E+01 0.876E+02   -.630E+01 0.169E+00 -.319E+02
   -.215E+03 0.446E+01 0.566E+02   0.221E+03 -.466E+01 -.888E+02   -.585E+01 0.195E+00 0.322E+02
   -.599E+02 0.118E+01 0.132E+03   0.338E+02 -.853E+00 -.145E+03   0.261E+02 -.334E+00 0.128E+02
   -.358E+02 0.229E+02 -.139E+03   0.846E+01 -.242E+02 0.153E+03   0.274E+02 0.126E+01 -.136E+02
   0.477E+02 0.374E+01 -.125E+03   -.208E+02 -.369E+01 0.138E+03   -.269E+02 -.449E-01 -.125E+02
   0.543E+02 -.222E+01 0.124E+03   -.285E+02 0.308E+01 -.137E+03   -.258E+02 -.853E+00 0.124E+02
   0.667E+02 -.525E+02 -.644E+02   -.552E+02 0.756E+02 0.800E+02   -.114E+02 -.231E+02 -.156E+02
   0.788E+02 0.700E+02 0.673E+02   -.671E+02 -.937E+02 -.837E+02   -.118E+02 0.237E+02 0.165E+02
   -.762E+02 -.626E+02 0.509E+02   0.648E+02 0.863E+02 -.662E+02   0.114E+02 -.237E+02 0.153E+02
   -.818E+02 0.692E+02 -.594E+02   0.708E+02 -.927E+02 0.752E+02   0.111E+02 0.235E+02 -.158E+02
[...]
   -.210E+03 -.120E+01 0.574E+02   0.216E+03 0.564E+00 -.891E+02   -.601E+01 0.630E+00 0.318E+02
   -.519E+02 -.612E-01 0.127E+03   0.254E+02 0.715E-01 -.140E+03   0.265E+02 -.103E-01 0.123E+02
   -.486E+02 -.335E-01 -.127E+03   0.218E+02 0.313E-01 0.139E+03   0.269E+02 0.152E-02 -.127E+02
   0.407E+02 -.535E+01 -.133E+03   -.132E+02 0.641E+01 0.147E+03   -.276E+02 -.106E+01 -.132E+02
   0.577E+02 -.298E+01 0.127E+03   -.316E+02 0.295E+01 -.139E+03   -.261E+02 0.299E-01 0.124E+02
   0.794E+02 -.628E+02 -.586E+02   -.682E+02 0.861E+02 0.746E+02   -.112E+02 -.233E+02 -.160E+02
   0.789E+02 0.618E+02 0.632E+02   -.677E+02 -.852E+02 -.793E+02   -.112E+02 0.234E+02 0.161E+02
   -.783E+02 -.654E+02 0.590E+02   0.671E+02 0.888E+02 -.748E+02   0.112E+02 -.234E+02 0.158E+02
   -.846E+02 0.553E+02 -.616E+02   0.736E+02 -.780E+02 0.777E+02   0.109E+02 0.227E+02 -.161E+02
   -.715E+02 0.643E+02 0.596E+02   0.598E+02 -.884E+02 -.757E+02   0.117E+02 0.241E+02 0.161E+02
   -.768E+02 -.651E+02 -.552E+02   0.651E+02 0.882E+02 0.707E+02   0.117E+02 -.231E+02 -.155E+02
   0.793E+02 0.628E+02 -.586E+02   -.680E+02 -.860E+02 0.746E+02   -.113E+02 0.233E+02 -.160E+02
   0.789E+02 -.618E+02 0.634E+02   -.677E+02 0.851E+02 -.795E+02   -.112E+02 -.233E+02 0.161E+02
   0.684E+02 0.337E+00 -.409E+02   -.719E+02 -.331E+00 0.415E+02   0.353E+01 -.676E-02 -.617E+00
   -.421E+01 0.948E-01 -.483E+01   -.909E-12 0.211E-11 -.554E-12   0.423E+01 -.783E-01 0.480E+01

 POSITION                                       TOTAL-FORCE (eV/Angst)
      8.13831      4.61083      2.52164        -0.001621      0.004931     -0.001777
      2.90049      4.66487      4.86670        -0.000026      0.000566     -0.000022
      2.28600      1.55710      2.41736        -0.000925     -0.001516      0.001543
      7.47264      1.52506      0.07397        -0.001457      0.002979      0.002402
      8.12513      4.59779      7.50074        -0.003669      0.000432      0.005011
      2.94511      4.68668      9.82597         0.001739     -0.001398     -0.002372
      2.26852      1.53110      7.36553        -0.001631      0.002291      0.000047
      7.48176      1.53219      5.01034        -0.000256     -0.000765      0.000442
      8.13794     10.93518      2.52139        -0.001497     -0.004846     -0.000960
      2.90034     10.88181      4.86677        -0.000311     -0.000603     -0.000259
      2.28707      7.77406      2.42547         0.003563      0.000121      0.006467
      7.50418      7.77367      0.10769         0.006752      0.000156      0.004998
      8.12499     10.94910      7.50039        -0.002893     -0.000491      0.005556
      2.94430     10.85953      9.82553         0.001612      0.000881     -0.002506
      2.17407      7.77463      7.29416        -0.008275     -0.000173     -0.005111
      7.53347      7.77362      4.83764         0.008577      0.001035     -0.014657
      8.12778     17.10143      2.54089        -0.001027     -0.000272      0.001722
      2.92095     17.10128      4.88822         0.001999     -0.000115      0.001013
      2.28642     13.98943      2.41763        -0.001777      0.001759      0.001131
      7.47268     14.02130      0.07431         0.000278     -0.002408      0.003066
      8.11203     17.10168      7.49431         0.000989     -0.000210      0.002313
      2.91747     17.10156      9.84054        -0.000097     -0.000082     -0.000749
      2.26841     14.01557      7.36596        -0.001153     -0.002024     -0.000201
      7.48210     14.01386      5.01052        -0.000538      0.000691     -0.000282
      6.32354      4.64901      0.31195        -0.004356      0.005681      0.003028
      1.11577      4.64722      2.15871         0.000711     -0.000512     -0.004156
      4.08693      1.54218      4.66700         0.000356      0.002743      0.000811
      9.29609      1.54093      2.76982        -0.000815      0.003126      0.005012
      6.30657      4.68317      5.23728        -0.003722      0.008574     -0.004884
      1.11258      4.57969      7.10857         0.000557      0.001913      0.001640
      4.08495      1.54863      9.60831        -0.002449      0.002123      0.000287
      9.27954      1.52776      7.73004         0.001708      0.002523      0.004771
      6.32326     10.89803      0.31146        -0.002981     -0.004571      0.005628
      1.11539     10.90036      2.15889         0.001771     -0.000868     -0.005481
      4.09387      7.77387      4.61851         0.000593     -0.000772     -0.017216
      9.33230      7.77374      2.73615         0.000057      0.000548     -0.004749
      6.30649     10.86311      5.23664        -0.002911     -0.009620     -0.004226
      1.11199     10.96707      7.10868         0.000239     -0.001812      0.002286
      4.07549      7.77322      9.67781        -0.005816      0.000067      0.001834
      9.20858      7.77368      7.68488         0.005261      0.000189     -0.009215
      6.30509     17.10112      0.30548        -0.000907     -0.000391      0.003094
      1.11475     17.10117      2.18661         0.000726      0.000070      0.002420
      4.08723     14.00384      4.66777        -0.000229     -0.000556      0.001179
      9.29624     14.00505      2.77066        -0.000875     -0.002548      0.005908
      6.31270     17.10115      5.24217        -0.000818     -0.000419      0.002407
      1.10492     17.10176      7.13383         0.001978     -0.000448      0.000737
      4.08484     13.99736      9.60833        -0.001762     -0.002232      0.001623
      9.27979     14.01952      7.73056         0.000872     -0.002016      0.003179
      6.63016      4.67666      3.73544         0.001916      0.002072     -0.000472
      1.38720      4.64151      3.66986        -0.000664      0.005478      0.002910
      3.80424      1.54502      1.22636        -0.000600      0.000059     -0.000073
      9.00247      1.53220      1.26219        -0.003061      0.000992      0.005387
     10.00018      4.64915      1.90216         0.004163     -0.004703      0.000484
      4.81482      4.62276      0.59252        -0.002794      0.005166      0.000115
      0.40595      1.54497      3.02291        -0.002690     -0.001736      0.003225
      5.61095      1.56426      4.41296         0.000458      0.004375      0.003751
      7.07116      5.85606      1.01980        -0.001146      0.009316      0.002174
      1.85552      3.44599      1.44693        -0.006201     -0.005049     -0.002807
      3.33845      2.73779      3.94375        -0.002312     -0.000272     -0.001644
      8.55393      0.34457      3.49940        -0.004157      0.000826      0.003471
[...]
      3.81142     14.01798      6.17694        -0.000553     -0.000119      0.000602
      8.99032     13.99919      6.21984        -0.004330     -0.004803      0.005200
      9.99005     17.10200      6.88641        -0.000649     -0.000086     -0.000109
      4.79722     17.10113      5.50011         0.000249     -0.000848      0.002538
      0.38216     14.04752      8.00511        -0.001248     -0.003183      0.001798
      5.60772     14.00232      9.36054        -0.000708     -0.003348     -0.000363
      7.05191     18.30380      5.96194         0.000739     -0.000781      0.002100
      1.84167     15.90034      6.41041         0.000293     -0.000798      0.000852
      3.34823     15.20516      8.89458         0.000157     -0.002874     -0.001598
      8.54077     12.81294      8.45062        -0.003415     -0.001413      0.003408
      3.35689     12.79602      8.88640        -0.000697     -0.002501      0.001958
      8.51932     15.21492      8.44081        -0.000022     -0.001916      0.004734
      7.05227     15.89881      5.96205         0.000892      0.000580      0.002591
      1.84157     18.30314      6.41025        -0.000050     -0.000056      0.000748
      5.82753      7.77553      7.18481         0.028228     -0.000569     -0.007228
    total drift:                                0.012797      0.016503     -0.035234

  FREE ENERGIE OF THE ION-ELECTRON SYSTEM (eV)
  free  energy   TOTEN  =     -1017.01727641 eV

  energy  without entropy=    -1017.01727641  energy(sigma->0) =    -1017.01727641

 writing wavefunctions

 total charge

[...]

 magnetization (x)

# of ion       s       p       d       tot
    1        0.024   0.031   4.289   4.344
    2        0.024   0.032   4.285   4.341
    3        0.024   0.031   4.291   4.345
    4        0.024   0.031   4.291   4.346
    5        0.024   0.031   4.283   4.339
    6        0.023   0.031   4.293   4.347
    7        0.023   0.031   4.295   4.349
    8        0.024   0.031   4.287   4.342
    9        0.024   0.031   4.289   4.344
   10        0.024   0.032   4.285   4.341
   11        0.025   0.031   4.290   4.346
   12        0.024   0.031   4.284   4.339
   13        0.024   0.031   4.283   4.339
   14        0.023   0.031   4.293   4.347
   15        0.027   0.020   3.740   3.787
   16        0.022   0.033   4.261   4.317
   17        0.024   0.031   4.290   4.345
   18        0.024   0.031   4.292   4.347
   19        0.024   0.031   4.291   4.345
   20        0.024   0.031   4.291   4.346
   21        0.024   0.031   4.292   4.347
   22        0.024   0.031   4.292   4.346
   23        0.023   0.031   4.295   4.349
   24        0.024   0.031   4.287   4.342
   25        0.003   0.011   0.000   0.014
   26        0.003   0.012   0.000   0.015
   27        0.003   0.011   0.000   0.015
   28        0.003   0.011   0.000   0.015
   29        0.003   0.011   0.000   0.014
   30        0.004   0.012   0.000   0.016
   31        0.003   0.012   0.000   0.015
   32        0.003   0.011   0.000   0.015
   33        0.003   0.011   0.000   0.014
   34        0.003   0.012   0.000   0.015
   35        0.003   0.010   0.000   0.013
   36        0.004   0.012   0.000   0.015
   37        0.003   0.011   0.000   0.014
   38        0.004   0.012   0.000   0.016
   39        0.004   0.012   0.000   0.016
   40        0.003   0.010   0.000   0.013
   41        0.003   0.011   0.000   0.015
   42        0.003   0.011   0.000   0.015
   43        0.003   0.011   0.000   0.015
   44        0.003   0.011   0.000   0.015
   45        0.003   0.011   0.000   0.015
   46        0.004   0.012   0.000   0.015
   47        0.003   0.012   0.000   0.015
   48        0.003   0.011   0.000   0.015
   49        0.007   0.106   0.000   0.113
   50        0.007   0.108   0.000   0.116
   51        0.007   0.112   0.000   0.120
   52        0.007   0.108   0.000   0.115
   53        0.008   0.106   0.000   0.113
   54        0.008   0.095   0.000   0.102
   55        0.008   0.098   0.000   0.106
   56        0.008   0.107   0.000   0.114
   57        0.010   0.124   0.000   0.134
   58        0.010   0.121   0.000   0.130
   59        0.010   0.121   0.000   0.131
   60        0.010   0.127   0.000   0.137
[...]
  131        0.007   0.106   0.000   0.114
  132        0.007   0.110   0.000   0.118
  133        0.008   0.103   0.000   0.110
  134        0.008   0.100   0.000   0.107
  135        0.008   0.095   0.000   0.103
  136        0.008   0.106   0.000   0.114
  137        0.010   0.126   0.000   0.137
  138        0.010   0.123   0.000   0.133
  139        0.010   0.122   0.000   0.132
  140        0.011   0.129   0.000   0.140
  141        0.010   0.121   0.000   0.131
  142        0.010   0.127   0.000   0.138
  143        0.010   0.126   0.000   0.137
  144        0.010   0.123   0.000   0.134
  145       -0.000   0.000   0.000   0.000
tot          1.485  11.738 102.370 115.593